
%    +-----------+
% 8  | | | | | | |
% 7  | | | | | | |
% 6  | |1|1| | | |
% 5  | |1|1| | | |
% 4  | | | | | | |
% 3  | |6| | | | |
% 2  | | |3| |4|5|
% 1  | | |2| | | |
%    +-----------+
n=6;
m=8;
h=2;
%maxT=15;
boxNumber=6;
boxSideLen = [2, 1, 1, 1, 1, 1];
boxStartX  = [2, 3, 3, 5, 6, 2];
boxStartY  = [5, 1, 2, 2, 2, 3];
